NAME           C:\Bruker\Hvattum\knapsack\Problems\class1\100-5-23.mps
ROWS
 N  OBJ
 L  CONSTR1
 L  CONSTR2
 L  CONSTR3
 L  CONSTR4
 L  CONSTR5
COLUMNS
    INT0001   'MARKER'  'INTORG'
    X1        OBJ       655
    X1        CONSTR1   853
    X1        CONSTR2   265
    X1        CONSTR3   630
    X1        CONSTR4   578
    X1        CONSTR5   543
    X2        OBJ       627
    X2        CONSTR1   339
    X2        CONSTR2   915
    X2        CONSTR3   569
    X2        CONSTR4   593
    X2        CONSTR5   685
    X3        OBJ       1025
    X3        CONSTR1   861
    X3        CONSTR2   629
    X3        CONSTR3   771
    X3        CONSTR4   760
    X3        CONSTR5   191
    X4        OBJ       807
    X4        CONSTR1   343
    X4        CONSTR2   656
    X4        CONSTR3   85
    X4        CONSTR4   261
    X4        CONSTR5   539
    X5        OBJ       418
    X5        CONSTR1   424
    X5        CONSTR2   640
    X5        CONSTR3   493
    X5        CONSTR4   248
    X5        CONSTR5   84
    X6        OBJ       620
    X6        CONSTR1   282
    X6        CONSTR2   721
    X6        CONSTR3   579
    X6        CONSTR4   172
    X6        CONSTR5   844
    X7        OBJ       670
    X7        CONSTR1   830
    X7        CONSTR2   921
    X7        CONSTR3   257
    X7        CONSTR4   246
    X7        CONSTR5   570
    X8        OBJ       895
    X8        CONSTR1   442
    X8        CONSTR2   636
    X8        CONSTR3   859
    X8        CONSTR4   735
    X8        CONSTR5   109
    X9        OBJ       619
    X9        CONSTR1   222
    X9        CONSTR2   35
    X9        CONSTR3   211
    X9        CONSTR4   70
    X9        CONSTR5   628
    X10       OBJ       671
    X10       CONSTR1   447
    X10       CONSTR2   756
    X10       CONSTR3   703
    X10       CONSTR4   378
    X10       CONSTR5   612
    X11       OBJ       930
    X11       CONSTR1   925
    X11       CONSTR2   46
    X11       CONSTR3   896
    X11       CONSTR4   602
    X11       CONSTR5   408
    X12       OBJ       424
    X12       CONSTR1   139
    X12       CONSTR2   173
    X12       CONSTR3   179
    X12       CONSTR4   464
    X12       CONSTR5   431
    X13       OBJ       713
    X13       CONSTR1   524
    X13       CONSTR2   56
    X13       CONSTR3   194
    X13       CONSTR4   582
    X13       CONSTR5   874
    X14       OBJ       618
    X14       CONSTR1   606
    X14       CONSTR2   460
    X14       CONSTR3   718
    X14       CONSTR4   231
    X14       CONSTR5   483
    X15       OBJ       559
    X15       CONSTR1   840
    X15       CONSTR2   93
    X15       CONSTR3   173
    X15       CONSTR4   480
    X15       CONSTR5   30
    X16       OBJ       765
    X16       CONSTR1   490
    X16       CONSTR2   741
    X16       CONSTR3   325
    X16       CONSTR4   499
    X16       CONSTR5   860
    X17       OBJ       803
    X17       CONSTR1   39
    X17       CONSTR2   622
    X17       CONSTR3   744
    X17       CONSTR4   537
    X17       CONSTR5   83
    X18       OBJ       643
    X18       CONSTR1   741
    X18       CONSTR2   200
    X18       CONSTR3   788
    X18       CONSTR4   769
    X18       CONSTR5   83
    X19       OBJ       940
    X19       CONSTR1   926
    X19       CONSTR2   138
    X19       CONSTR3   481
    X19       CONSTR4   32
    X19       CONSTR5   787
    X20       OBJ       524
    X20       CONSTR1   518
    X20       CONSTR2   20
    X20       CONSTR3   779
    X20       CONSTR4   256
    X20       CONSTR5   254
    X21       OBJ       902
    X21       CONSTR1   843
    X21       CONSTR2   890
    X21       CONSTR3   662
    X21       CONSTR4   360
    X21       CONSTR5   705
    X22       OBJ       891
    X22       CONSTR1   425
    X22       CONSTR2   26
    X22       CONSTR3   755
    X22       CONSTR4   854
    X22       CONSTR5   155
    X23       OBJ       936
    X23       CONSTR1   410
    X23       CONSTR2   779
    X23       CONSTR3   866
    X23       CONSTR4   633
    X23       CONSTR5   335
    X24       OBJ       623
    X24       CONSTR1   788
    X24       CONSTR2   232
    X24       CONSTR3   387
    X24       CONSTR4   512
    X24       CONSTR5   182
    X25       OBJ       1022
    X25       CONSTR1   196
    X25       CONSTR2   858
    X25       CONSTR3   666
    X25       CONSTR4   613
    X25       CONSTR5   375
    X26       OBJ       548
    X26       CONSTR1   801
    X26       CONSTR2   242
    X26       CONSTR3   897
    X26       CONSTR4   61
    X26       CONSTR5   511
    X27       OBJ       626
    X27       CONSTR1   255
    X27       CONSTR2   325
    X27       CONSTR3   462
    X27       CONSTR4   280
    X27       CONSTR5   668
    X28       OBJ       757
    X28       CONSTR1   202
    X28       CONSTR2   807
    X28       CONSTR3   589
    X28       CONSTR4   490
    X28       CONSTR5   403
    X29       OBJ       1122
    X29       CONSTR1   285
    X29       CONSTR2   971
    X29       CONSTR3   925
    X29       CONSTR4   728
    X29       CONSTR5   696
    X30       OBJ       866
    X30       CONSTR1   757
    X30       CONSTR2   787
    X30       CONSTR3   921
    X30       CONSTR4   238
    X30       CONSTR5   760
    X31       OBJ       1118
    X31       CONSTR1   864
    X31       CONSTR2   475
    X31       CONSTR3   855
    X31       CONSTR4   494
    X31       CONSTR5   623
    X32       OBJ       566
    X32       CONSTR1   673
    X32       CONSTR2   500
    X32       CONSTR3   364
    X32       CONSTR4   475
    X32       CONSTR5   684
    X33       OBJ       624
    X33       CONSTR1   641
    X33       CONSTR2   962
    X33       CONSTR3   372
    X33       CONSTR4   778
    X33       CONSTR5   262
    X34       OBJ       555
    X34       CONSTR1   212
    X34       CONSTR2   40
    X34       CONSTR3   466
    X34       CONSTR4   681
    X34       CONSTR5   161
    X35       OBJ       303
    X35       CONSTR1   7
    X35       CONSTR2   437
    X35       CONSTR3   101
    X35       CONSTR4   28
    X35       CONSTR5   165
    X36       OBJ       883
    X36       CONSTR1   22
    X36       CONSTR2   923
    X36       CONSTR3   684
    X36       CONSTR4   200
    X36       CONSTR5   878
    X37       OBJ       874
    X37       CONSTR1   596
    X37       CONSTR2   740
    X37       CONSTR3   87
    X37       CONSTR4   468
    X37       CONSTR5   643
    X38       OBJ       801
    X38       CONSTR1   216
    X38       CONSTR2   716
    X38       CONSTR3   394
    X38       CONSTR4   519
    X38       CONSTR5   158
    X39       OBJ       1035
    X39       CONSTR1   761
    X39       CONSTR2   489
    X39       CONSTR3   622
    X39       CONSTR4   640
    X39       CONSTR5   861
    X40       OBJ       703
    X40       CONSTR1   824
    X40       CONSTR2   285
    X40       CONSTR3   391
    X40       CONSTR4   603
    X40       CONSTR5   796
    X41       OBJ       685
    X41       CONSTR1   505
    X41       CONSTR2   767
    X41       CONSTR3   932
    X41       CONSTR4   341
    X41       CONSTR5   881
    X42       OBJ       301
    X42       CONSTR1   83
    X42       CONSTR2   820
    X42       CONSTR3   336
    X42       CONSTR4   146
    X42       CONSTR5   29
    X43       OBJ       533
    X43       CONSTR1   403
    X43       CONSTR2   173
    X43       CONSTR3   854
    X43       CONSTR4   149
    X43       CONSTR5   402
    X44       OBJ       623
    X44       CONSTR1   687
    X44       CONSTR2   450
    X44       CONSTR3   943
    X44       CONSTR4   959
    X44       CONSTR5   18
    X45       OBJ       989
    X45       CONSTR1   210
    X45       CONSTR2   965
    X45       CONSTR3   305
    X45       CONSTR4   934
    X45       CONSTR5   202
    X46       OBJ       992
    X46       CONSTR1   69
    X46       CONSTR2   813
    X46       CONSTR3   948
    X46       CONSTR4   877
    X46       CONSTR5   665
    X47       OBJ       1021
    X47       CONSTR1   271
    X47       CONSTR2   952
    X47       CONSTR3   895
    X47       CONSTR4   291
    X47       CONSTR5   796
    X48       OBJ       863
    X48       CONSTR1   177
    X48       CONSTR2   666
    X48       CONSTR3   331
    X48       CONSTR4   980
    X48       CONSTR5   263
    X49       OBJ       788
    X49       CONSTR1   49
    X49       CONSTR2   541
    X49       CONSTR3   91
    X49       CONSTR4   166
    X49       CONSTR5   886
    X50       OBJ       690
    X50       CONSTR1   564
    X50       CONSTR2   604
    X50       CONSTR3   95
    X50       CONSTR4   851
    X50       CONSTR5   618
    X51       OBJ       1080
    X51       CONSTR1   821
    X51       CONSTR2   531
    X51       CONSTR3   990
    X51       CONSTR4   964
    X51       CONSTR5   571
    X52       OBJ       1037
    X52       CONSTR1   923
    X52       CONSTR2   521
    X52       CONSTR3   874
    X52       CONSTR4   832
    X52       CONSTR5   757
    X53       OBJ       921
    X53       CONSTR1   842
    X53       CONSTR2   511
    X53       CONSTR3   521
    X53       CONSTR4   644
    X53       CONSTR5   528
    X54       OBJ       758
    X54       CONSTR1   347
    X54       CONSTR2   906
    X54       CONSTR3   281
    X54       CONSTR4   161
    X54       CONSTR5   39
    X55       OBJ       1007
    X55       CONSTR1   618
    X55       CONSTR2   363
    X55       CONSTR3   987
    X55       CONSTR4   521
    X55       CONSTR5   508
    X56       OBJ       716
    X56       CONSTR1   673
    X56       CONSTR2   718
    X56       CONSTR3   177
    X56       CONSTR4   804
    X56       CONSTR5   698
    X57       OBJ       809
    X57       CONSTR1   596
    X57       CONSTR2   946
    X57       CONSTR3   959
    X57       CONSTR4   375
    X57       CONSTR5   344
    X58       OBJ       727
    X58       CONSTR1   718
    X58       CONSTR2   388
    X58       CONSTR3   159
    X58       CONSTR4   299
    X58       CONSTR5   471
    X59       OBJ       1067
    X59       CONSTR1   785
    X59       CONSTR2   843
    X59       CONSTR3   647
    X59       CONSTR4   184
    X59       CONSTR5   663
    X60       OBJ       915
    X60       CONSTR1   518
    X60       CONSTR2   130
    X60       CONSTR3   245
    X60       CONSTR4   938
    X60       CONSTR5   780
    X61       OBJ       499
    X61       CONSTR1   907
    X61       CONSTR2   24
    X61       CONSTR3   395
    X61       CONSTR4   183
    X61       CONSTR5   38
    X62       OBJ       744
    X62       CONSTR1   170
    X62       CONSTR2   740
    X62       CONSTR3   865
    X62       CONSTR4   959
    X62       CONSTR5   546
    X63       OBJ       505
    X63       CONSTR1   100
    X63       CONSTR2   108
    X63       CONSTR3   267
    X63       CONSTR4   991
    X63       CONSTR5   167
    X64       OBJ       738
    X64       CONSTR1   58
    X64       CONSTR2   457
    X64       CONSTR3   231
    X64       CONSTR4   479
    X64       CONSTR5   191
    X65       OBJ       741
    X65       CONSTR1   127
    X65       CONSTR2   212
    X65       CONSTR3   586
    X65       CONSTR4   122
    X65       CONSTR5   907
    X66       OBJ       859
    X66       CONSTR1   912
    X66       CONSTR2   977
    X66       CONSTR3   532
    X66       CONSTR4   83
    X66       CONSTR5   210
    X67       OBJ       774
    X67       CONSTR1   344
    X67       CONSTR2   780
    X67       CONSTR3   412
    X67       CONSTR4   357
    X67       CONSTR5   646
    X68       OBJ       787
    X68       CONSTR1   575
    X68       CONSTR2   906
    X68       CONSTR3   90
    X68       CONSTR4   276
    X68       CONSTR5   279
    X69       OBJ       606
    X69       CONSTR1   538
    X69       CONSTR2   209
    X69       CONSTR3   849
    X69       CONSTR4   142
    X69       CONSTR5   1000
    X70       OBJ       790
    X70       CONSTR1   835
    X70       CONSTR2   190
    X70       CONSTR3   684
    X70       CONSTR4   407
    X70       CONSTR5   993
    X71       OBJ       430
    X71       CONSTR1   339
    X71       CONSTR2   191
    X71       CONSTR3   537
    X71       CONSTR4   429
    X71       CONSTR5   467
    X72       OBJ       519
    X72       CONSTR1   130
    X72       CONSTR2   461
    X72       CONSTR3   245
    X72       CONSTR4   364
    X72       CONSTR5   364
    X73       OBJ       681
    X73       CONSTR1   644
    X73       CONSTR2   130
    X73       CONSTR3   227
    X73       CONSTR4   26
    X73       CONSTR5   291
    X74       OBJ       905
    X74       CONSTR1   886
    X74       CONSTR2   670
    X74       CONSTR3   551
    X74       CONSTR4   307
    X74       CONSTR5   417
    X75       OBJ       448
    X75       CONSTR1   335
    X75       CONSTR2   120
    X75       CONSTR3   192
    X75       CONSTR4   538
    X75       CONSTR5   541
    X76       OBJ       623
    X76       CONSTR1   362
    X76       CONSTR2   265
    X76       CONSTR3   617
    X76       CONSTR4   566
    X76       CONSTR5   607
    X77       OBJ       645
    X77       CONSTR1   271
    X77       CONSTR2   161
    X77       CONSTR3   189
    X77       CONSTR4   594
    X77       CONSTR5   653
    X78       OBJ       688
    X78       CONSTR1   319
    X78       CONSTR2   627
    X78       CONSTR3   899
    X78       CONSTR4   71
    X78       CONSTR5   902
    X79       OBJ       607
    X79       CONSTR1   116
    X79       CONSTR2   878
    X79       CONSTR3   467
    X79       CONSTR4   713
    X79       CONSTR5   820
    X80       OBJ       395
    X80       CONSTR1   114
    X80       CONSTR2   628
    X80       CONSTR3   481
    X80       CONSTR4   584
    X80       CONSTR5   88
    X81       OBJ       713
    X81       CONSTR1   650
    X81       CONSTR2   568
    X81       CONSTR3   954
    X81       CONSTR4   982
    X81       CONSTR5   20
    X82       OBJ       455
    X82       CONSTR1   801
    X82       CONSTR2   209
    X82       CONSTR3   61
    X82       CONSTR4   836
    X82       CONSTR5   180
    X83       OBJ       653
    X83       CONSTR1   639
    X83       CONSTR2   871
    X83       CONSTR3   206
    X83       CONSTR4   8
    X83       CONSTR5   788
    X84       OBJ       823
    X84       CONSTR1   141
    X84       CONSTR2   159
    X84       CONSTR3   557
    X84       CONSTR4   951
    X84       CONSTR5   461
    X85       OBJ       511
    X85       CONSTR1   29
    X85       CONSTR2   521
    X85       CONSTR3   839
    X85       CONSTR4   306
    X85       CONSTR5   449
    X86       OBJ       740
    X86       CONSTR1   173
    X86       CONSTR2   397
    X86       CONSTR3   246
    X86       CONSTR4   949
    X86       CONSTR5   47
    X87       OBJ       821
    X87       CONSTR1   421
    X87       CONSTR2   917
    X87       CONSTR3   165
    X87       CONSTR4   386
    X87       CONSTR5   201
    X88       OBJ       910
    X88       CONSTR1   486
    X88       CONSTR2   671
    X88       CONSTR3   661
    X88       CONSTR4   672
    X88       CONSTR5   819
    X89       OBJ       708
    X89       CONSTR1   849
    X89       CONSTR2   742
    X89       CONSTR3   342
    X89       CONSTR4   20
    X89       CONSTR5   481
    X90       OBJ       982
    X90       CONSTR1   806
    X90       CONSTR2   500
    X90       CONSTR3   966
    X90       CONSTR4   293
    X90       CONSTR5   542
    X91       OBJ       557
    X91       CONSTR1   717
    X91       CONSTR2   378
    X91       CONSTR3   288
    X91       CONSTR4   672
    X91       CONSTR5   217
    X92       OBJ       737
    X92       CONSTR1   525
    X92       CONSTR2   796
    X92       CONSTR3   734
    X92       CONSTR4   342
    X92       CONSTR5   501
    X93       OBJ       781
    X93       CONSTR1   461
    X93       CONSTR2   936
    X93       CONSTR3   739
    X93       CONSTR4   863
    X93       CONSTR5   820
    X94       OBJ       566
    X94       CONSTR1   231
    X94       CONSTR2   606
    X94       CONSTR3   189
    X94       CONSTR4   239
    X94       CONSTR5   207
    X95       OBJ       648
    X95       CONSTR1   328
    X95       CONSTR2   381
    X95       CONSTR3   110
    X95       CONSTR4   551
    X95       CONSTR5   916
    X96       OBJ       745
    X96       CONSTR1   929
    X96       CONSTR2   918
    X96       CONSTR3   134
    X96       CONSTR4   570
    X96       CONSTR5   653
    X97       OBJ       627
    X97       CONSTR1   136
    X97       CONSTR2   304
    X97       CONSTR3   209
    X97       CONSTR4   682
    X97       CONSTR5   639
    X98       OBJ       709
    X98       CONSTR1   429
    X98       CONSTR2   839
    X98       CONSTR3   141
    X98       CONSTR4   888
    X98       CONSTR5   937
    X99       OBJ       955
    X99       CONSTR1   369
    X99       CONSTR2   418
    X99       CONSTR3   226
    X99       CONSTR4   899
    X99       CONSTR5   828
    X100      OBJ       909
    X100      CONSTR1   649
    X100      CONSTR2   268
    X100      CONSTR3   439
    X100      CONSTR4   395
    X100      CONSTR5   405
    INT0001   'MARKER'  'INTEND'
RHS
    RHS10001  CONSTR1   36209
    RHS10001  CONSTR2   39711
    RHS10001  CONSTR3   38244
    RHS10001  CONSTR4   36944
    RHS10001  CONSTR5   37107
BOUNDS
 BV BND       X1        .00
 BV BND       X2        .00
 BV BND       X3        .00
 BV BND       X4        .00
 BV BND       X5        .00
 BV BND       X6        .00
 BV BND       X7        .00
 BV BND       X8        .00
 BV BND       X9        .00
 BV BND       X10       .00
 BV BND       X11       .00
 BV BND       X12       .00
 BV BND       X13       .00
 BV BND       X14       .00
 BV BND       X15       .00
 BV BND       X16       .00
 BV BND       X17       .00
 BV BND       X18       .00
 BV BND       X19       .00
 BV BND       X20       .00
 BV BND       X21       .00
 BV BND       X22       .00
 BV BND       X23       .00
 BV BND       X24       .00
 BV BND       X25       .00
 BV BND       X26       .00
 BV BND       X27       .00
 BV BND       X28       .00
 BV BND       X29       .00
 BV BND       X30       .00
 BV BND       X31       .00
 BV BND       X32       .00
 BV BND       X33       .00
 BV BND       X34       .00
 BV BND       X35       .00
 BV BND       X36       .00
 BV BND       X37       .00
 BV BND       X38       .00
 BV BND       X39       .00
 BV BND       X40       .00
 BV BND       X41       .00
 BV BND       X42       .00
 BV BND       X43       .00
 BV BND       X44       .00
 BV BND       X45       .00
 BV BND       X46       .00
 BV BND       X47       .00
 BV BND       X48       .00
 BV BND       X49       .00
 BV BND       X50       .00
 BV BND       X51       .00
 BV BND       X52       .00
 BV BND       X53       .00
 BV BND       X54       .00
 BV BND       X55       .00
 BV BND       X56       .00
 BV BND       X57       .00
 BV BND       X58       .00
 BV BND       X59       .00
 BV BND       X60       .00
 BV BND       X61       .00
 BV BND       X62       .00
 BV BND       X63       .00
 BV BND       X64       .00
 BV BND       X65       .00
 BV BND       X66       .00
 BV BND       X67       .00
 BV BND       X68       .00
 BV BND       X69       .00
 BV BND       X70       .00
 BV BND       X71       .00
 BV BND       X72       .00
 BV BND       X73       .00
 BV BND       X74       .00
 BV BND       X75       .00
 BV BND       X76       .00
 BV BND       X77       .00
 BV BND       X78       .00
 BV BND       X79       .00
 BV BND       X80       .00
 BV BND       X81       .00
 BV BND       X82       .00
 BV BND       X83       .00
 BV BND       X84       .00
 BV BND       X85       .00
 BV BND       X86       .00
 BV BND       X87       .00
 BV BND       X88       .00
 BV BND       X89       .00
 BV BND       X90       .00
 BV BND       X91       .00
 BV BND       X92       .00
 BV BND       X93       .00
 BV BND       X94       .00
 BV BND       X95       .00
 BV BND       X96       .00
 BV BND       X97       .00
 BV BND       X98       .00
 BV BND       X99       .00
 BV BND       X100      .00
ENDATA
